TITL TYRO_AVG_a.res in P2(1)2(1)2(1)
    TYRO_AVG_a.res
    created by SHELXL-2019/3 at 13:35:08 on 07-Oct-2024
REM Old TITL TYRO_AVG in P2(1)2(1)2(1)
REM SHELXT solution in P2(1)2(1)2(1): R1 0.221, Rweak 0.156, Alpha 0.014
REM <I/s>   0.000 for    0 systematic absences,  Orientation as input
REM Flack x = -2.591 ( 4.260 ) from   547 Parsons' quotients
REM Formula found by SHELXT:  C12 O

CELL  0.02508   5.9300   7.0500  21.1200   90.000   90.000   90.000
ZERR    4.000   0.0012   0.0014   0.0042    0.000    0.000    0.000
LATT -1
SYMM 1/2-X, -Y, 1/2+Z
SYMM -X, 1/2+Y, 1/2-Z
SYMM 1/2+X, 1/2-Y, -Z
SFAC C 0.1361 0.3731 0.5482 3.2814 1.2266 13.0456 0.5971 41.0202 0 =
   0 0 0 0.77 12.01
SFAC H 0.0367 0.5608 0.1269 3.7913 0.236 13.5557 0.129 37.7229 0 0 =
   0 0 0.32 1.008
SFAC N 0.1372 0.3287 0.5344 2.6733 1.0862 10.3165 0.4547 32.7631 0 =
 0 0 0 0.7 14.01
SFAC O 0.1433 0.3055 0.5103 2.2683 0.937 8.2625 0.3923 25.6645 0 0 =
   0 0 0.66 16
SFAC N+ 61.992 1828.992 3.905 78.337 15.743 433.248 2.203 9.251 0.336 =
   0.0 0.0 0.000 1.550 14.006
SFAC O- -64.675 2095.695 -5.325 133.097 -71.572 -0.021 -18.479 579.274 72.451 =
   0.0 0.0 0.000 1.260 15.999
SFAC C- -68.530 2526.503 -7.849 200.334 -90.191 -0.019 -23.445 806.628 91.023 =
   0.0 0.0 0.000 0.730 12.011
SFAC N- -65.549 2231.039 -19.981 663.164 -83.515 -0.020 -6.333 160.786 84.385 =
   0.0 0.0 0.000 1.550 14.006
SFAC C+ 62.099 1820.496  4.068 75.137 15.609 427.287  2.290 10.163  0.302 =
   0.0 0.0 0.000 0.730 12.010
SFAC O+ 62.033 1841.550  3.899 84.709 15.846 443.632  2.105  9.142  0.404 =
   0.0 0.0 0.000 1.260 15.999
SFAC H+ 63.227 1922.675 16.614 482.652  4.233 100.457  1.177 13.367  0.129 =
   0.0 0.0 0.000 0.120 1.008
UNIT 28.238 0 2.16124 8.90576 0 3.09424 7.76204 1.83876 0 0 12.6924
OMIT 2 2 0
OMIT 0 2 10
ACTA
REM OVERRIDEF000 146.19
L.S. 20
MORE -3
REM OMIT $H+
REM BOND $H+
REM ACTA
TEMP -110
LIST 6
REM mpla 6 C1 C2 C3 C4 C5 C6 H2 H3 H5 H6
FMAP 2
PLAN 5
RIGU
SIMU 0.01 0.02
REM NEUT
EADP O1- O1
EXYZ O1- O1
EADP O3- O3
EXYZ O3- O3
EADP N1- N1
EXYZ N1- N1
EADP C1- C1
EXYZ C1- C1
EADP C2- C2
EXYZ C2- C2
EADP C3- C3
EXYZ C3- C3
EADP C4- C4
EXYZ C4- C4
EADP C5- C5
EXYZ C5- C5
EADP C6- C6
EXYZ C6- C6
EADP C8- C8
EXYZ C8- C8
EADP C7- C7
EXYZ C7- C7
EADP C9- C9
EXYZ C9- C9
EADP O2- O2
EXYZ O2- O2
SHEL 999 0.75
REM ACTA
REM DAMP 100
SUMP 0 0.01 -1 2 -1 3 -1 4 -1 5 -1 6 -1 7 -1 8 -1 9 -1 10 -1 11 -1 12 -1 13=
 -1 14 1 15 1 16 1 17 1 18 1 19 1 20 1 21 1 22 1 23 1 24 1 25
WGHT    0.158800
FVAR       3.17799   0.29454   0.45959   0.15279   0.26714   0.30450   0.21198
FVAR       0.10151   0.11105   0.25449   0.28252   0.38014   0.18985   0.16338
FVAR       0.39452   0.32018   0.18879   0.22854   0.29207   0.20311   0.29519
FVAR       0.33221   0.29251   0.32266   0.30305
PART 1
O1    4    0.621773    0.835334    0.332587   -21.00000    0.02816    0.05252 =
         0.03809    0.00257   -0.00330   -0.00401
N1    3    0.195703    0.757908    0.303685   -31.00000    0.01697    0.04222 =
         0.02724    0.00584    0.00179    0.00018
H1A  11    0.208980    0.861873    0.270336   151.00000    0.02828
H1B  11    0.220709    0.854739    0.351403   161.00000    0.02561
H1C  11    0.008525    0.686496    0.294656   171.00000    0.02453
C1    1    0.351614    0.460210    0.406275   -41.00000    0.01167    0.04190 =
         0.02251    0.00022   -0.00077    0.00041
O2    4    0.468457    0.519472    0.599934   -51.00000    0.02641    0.04634 =
         0.02728   -0.00309   -0.00094    0.00070
H2A  11    0.340584    0.567962    0.621068   181.00000    0.02754
C2    1    0.558219    0.405084    0.433755   -61.00000    0.01555    0.04106 =
         0.02415    0.00170   -0.00286    0.00085
H2   11    0.686429    0.351691    0.406079   191.00000    0.02427
O3    4    0.767472    0.573451    0.286151   -71.00000    0.02000    0.05640 =
         0.03496    0.00488    0.00266   -0.00123
C3    1    0.596388    0.426071    0.498605   -81.00000    0.01354    0.04126 =
         0.02680    0.00325   -0.00229    0.00177
H3   11    0.745611    0.378853    0.525459   201.00000    0.01742
C4    1    0.427998    0.503158    0.536916   -91.00000    0.01609    0.03959 =
         0.02719    0.00047   -0.00165    0.00385
C5    1    0.221768    0.571256    0.509964  -101.00000    0.01352    0.03778 =
         0.02815   -0.00042    0.00167    0.00257
H5   11    0.091373    0.622169    0.542894   211.00000    0.03164
C6    1    0.185377    0.547777    0.444900  -111.00000    0.00955    0.04123 =
         0.02711    0.00191    0.00047    0.00462
H6   11    0.016143    0.578270    0.423655   221.00000    0.02478
C7    1    0.312811    0.429513    0.336031  -121.00000    0.01923    0.04362 =
         0.02322   -0.00291   -0.00105   -0.00522
H7A  11    0.126956    0.374542    0.328331   231.00000    0.02076
H7B  11    0.394270    0.299954    0.323078   241.00000    0.03569
C8    1    0.363674    0.605980    0.293740  -131.00000    0.01700    0.04347 =
         0.02670   -0.00033    0.00096    0.00212
REM AFIX 13
H8   11    0.348041    0.556817    0.242582   251.00000    0.02673
REM AFIX 0
C9    1    0.604949    0.675926    0.306314  -141.00000    0.01639    0.04794 =
         0.03137    0.00182   -0.00143   -0.00384
PART 2
O1-   6    0.621773    0.835334    0.332587    21.00000    0.02816    0.05252 =
         0.03809    0.00257   -0.00330   -0.00401
N1-   8    0.195703    0.757908    0.303685    31.00000    0.01697    0.04222 =
         0.02724    0.00584    0.00179    0.00018

C1-   7    0.351614    0.460210    0.406275    41.00000    0.01167    0.04190 =
         0.02251    0.00022   -0.00077    0.00041
O2-   6    0.468457    0.519472    0.599934    51.00000    0.02641    0.04634 =
         0.02728   -0.00309   -0.00094    0.00070
C2-   7    0.558219    0.405084    0.433755    61.00000    0.01555    0.04106 =
         0.02415    0.00170   -0.00286    0.00085
O3-   6    0.767472    0.573451    0.286151    71.00000    0.02000    0.05640 =
         0.03496    0.00488    0.00266   -0.00123
C3-   7    0.596388    0.426071    0.498605    81.00000    0.01354    0.04126 =
         0.02680    0.00325   -0.00229    0.00177
C4-   7    0.427998    0.503158    0.536916    91.00000    0.01609    0.03959 =
         0.02719    0.00047   -0.00165    0.00385
C5-   7    0.221768    0.571256    0.509964   101.00000    0.01352    0.03778 =
         0.02815   -0.00042    0.00167    0.00257
C6-   7    0.185377    0.547777    0.444900   111.00000    0.00955    0.04123 =
         0.02711    0.00191    0.00047    0.00462
C7-   7    0.312811    0.429513    0.336031   121.00000    0.01923    0.04362 =
         0.02322   -0.00291   -0.00105   -0.00522
C8-   7    0.363674    0.605980    0.293740   131.00000    0.01700    0.04347 =
         0.02670   -0.00033    0.00096    0.00212
C9-   7    0.604949    0.675926    0.306314   141.00000    0.01639    0.04794 =
         0.03137    0.00182   -0.00143   -0.00384
PART 0
HKLF 4




REM  TYRO_AVG_a.res in P2(1)2(1)2(1)
REM wR2 = 0.3064, GooF = S = 1.169, Restrained GooF = 1.033 for all data
REM R1 = 0.1194 for 1686 Fo > 4sig(Fo) and 0.1405 for all 2190 data
REM 186 parameters refined using 724 restraints

END  
     
WGHT      0.1588      0.0000 

REM Highest difference peak  0.166,  deepest hole -0.160,  1-sigma level  0.049
Q1    1   0.3608  0.1505  0.3587  11.00000  0.05    0.17
Q2    1   0.4642  0.9842  0.3518  11.00000  0.05    0.16
Q3    1   0.1625  0.9913  0.2570  11.00000  0.05    0.14
Q4    1   0.7497  0.4522  0.3329  11.00000  0.05    0.14
Q5    1   0.3275  1.0238  0.3673  11.00000  0.05    0.14
